(set-logic QF_NRA)
(set-info :source |Benchmarks generated from hycomp (https://es-static.fbk.eu/tools/hycomp/). BMC instances of non-linear hybrid automata taken from: Alessandro Cimatti, Sergio Mover, Stefano Tonetta, A quantifier-free SMT encoding of non-linear hybrid automata, FMCAD 2012 and Alessandro Cimatti, Sergio Mover, Stefano Tonetta, Quantier-free encoding of invariants for Hybrid Systems, Formal Methods in System Design. This instance solves a BMC problem of depth 1 and uses the quantifier free encoding with equivalences encoding. Contacts: Sergio Mover (mover@fbk.eu), Stefano Tonetta (tonettas@fbk.eu), Alessandro Cimatti (cimatti@fbk.eu).|)
(set-info :smt-lib-version 2.0)
(set-info :category "industrial")
(set-info :status unsat)
;; MathSAT API call trace
;; generated on Mon Mar 19 10:43:02 2012
(declare-fun b.delta__AT0 () Real)
(declare-fun b.EVENT.0__AT0 () Bool)
(declare-fun b.y__AT1 () Real)
(declare-fun b.counter.0__AT1 () Bool)
(declare-fun b.counter.1__AT1 () Bool)
(declare-fun b.counter.2__AT1 () Bool)
(declare-fun b.counter.3__AT1 () Bool)
(declare-fun speed_loss__AT0 () Real)
(declare-fun b.EVENT.0__AT1 () Bool)
(declare-fun b.EVENT.1__AT1 () Bool)
(declare-fun b.counter.3__AT0 () Bool)
(declare-fun b.x__AT0 () Real)
(declare-fun b.speed_y__AT0 () Real)
(declare-fun b.speed_x__AT0 () Real)
(declare-fun b.x__AT1 () Real)
(declare-fun b.EVENT.1__AT0 () Bool)
(declare-fun b.event_is_timed__AT1 () Bool)
(declare-fun b.time__AT0 () Real)
(declare-fun b.speed_x__AT1 () Real)
(declare-fun b.speed_y__AT1 () Real)
(declare-fun b.y__AT0 () Real)
(declare-fun b.counter.0__AT0 () Bool)
(declare-fun b.counter.1__AT0 () Bool)
(declare-fun g__AT0 () Real)
(declare-fun b.event_is_timed__AT0 () Bool)
(declare-fun b.counter.2__AT0 () Bool)
(declare-fun b.time__AT1 () Real)
(declare-fun b.delta__AT1 () Real)
(assert (let ((.def_71 (* (- 1.0) g__AT0)))
(let ((.def_72 (* (/ 1 2) .def_71)))
(let ((.def_80 (* 2.0 .def_72)))
(let ((.def_257 (* .def_80 b.delta__AT1)))
(let ((.def_258 (+ b.speed_y__AT1 .def_257)))
(let ((.def_262 (<= .def_258 0.0 )))
(let ((.def_261 (<= b.speed_y__AT1 0.0 )))
(let ((.def_263 (and .def_261 .def_262)))
(let ((.def_259 (<= 0.0 .def_258)))
(let ((.def_256 (<= 0.0 b.speed_y__AT1)))
(let ((.def_260 (and .def_256 .def_259)))
(let ((.def_264 (or .def_260 .def_263)))
(let ((.def_251 (* b.speed_y__AT1 b.delta__AT1)))
(let ((.def_249 (* b.delta__AT1 b.delta__AT1)))
(let ((.def_250 (* .def_72 .def_249)))
(let ((.def_252 (+ .def_250 .def_251)))
(let ((.def_253 (+ b.y__AT1 .def_252)))
(let ((.def_254 (<= 0.0 .def_253)))
(let ((.def_242 (<= 0.0 b.y__AT1)))
(let ((.def_255 (and .def_242 .def_254)))
(let ((.def_265 (and .def_255 .def_264)))
(let ((.def_52 (<= g__AT0 10.0 )))
(let ((.def_51 (<= 8.0 g__AT0)))
(let ((.def_53 (and .def_51 .def_52)))
(let ((.def_266 (and .def_53 .def_265)))
(let ((.def_60 (<= speed_loss__AT0 (/ 1 2))))
(let ((.def_57 (<= (/ 1 10) speed_loss__AT0)))
(let ((.def_61 (and .def_57 .def_60)))
(let ((.def_267 (and .def_61 .def_266)))
(let ((.def_62 (and .def_53 .def_61)))
(let ((.def_243 (and .def_62 .def_242)))
(let ((.def_239 (not b.EVENT.0__AT1)))
(let ((.def_237 (not b.EVENT.1__AT1)))
(let ((.def_240 (or .def_237 .def_239)))
(let ((.def_6 (not b.counter.0__AT1)))
(let ((.def_4 (not b.counter.1__AT1)))
(let ((.def_230 (or .def_4 .def_6)))
(let ((.def_234 (or b.counter.3__AT1 .def_230)))
(let ((.def_231 (or b.counter.2__AT1 .def_230)))
(let ((.def_9 (not b.counter.2__AT1)))
(let ((.def_229 (or .def_6 .def_9)))
(let ((.def_232 (and .def_229 .def_231)))
(let ((.def_151 (not b.counter.3__AT1)))
(let ((.def_233 (or .def_151 .def_232)))
(let ((.def_235 (and .def_233 .def_234)))
(let ((.def_241 (and .def_235 .def_240)))
(let ((.def_244 (and .def_241 .def_243)))
(let ((.def_224 (<= 0.0 b.delta__AT0)))
(let ((.def_46 (not b.EVENT.0__AT0)))
(let ((.def_44 (not b.EVENT.1__AT0)))
(let ((.def_122 (and .def_44 .def_46)))
(let ((.def_123 (not .def_122)))
(let ((.def_225 (or .def_123 .def_224)))
(let ((.def_226 (or b.EVENT.1__AT0 .def_225)))
(let ((.def_173 (= b.counter.0__AT1 b.counter.0__AT0)))
(let ((.def_171 (= b.counter.1__AT1 b.counter.1__AT0)))
(let ((.def_169 (= b.counter.2__AT1 b.counter.2__AT0)))
(let ((.def_168 (= b.counter.3__AT0 b.counter.3__AT1)))
(let ((.def_170 (and .def_168 .def_169)))
(let ((.def_172 (and .def_170 .def_171)))
(let ((.def_174 (and .def_172 .def_173)))
(let ((.def_221 (or .def_123 .def_174)))
(let ((.def_222 (or b.EVENT.1__AT0 .def_221)))
(let ((.def_181 (= b.x__AT1 b.x__AT0)))
(let ((.def_178 (= b.y__AT0 b.y__AT1)))
(let ((.def_215 (and .def_178 .def_181)))
(let ((.def_104 (= b.speed_x__AT0 b.speed_x__AT1)))
(let ((.def_216 (and .def_104 .def_215)))
(let ((.def_167 (= b.speed_y__AT0 b.speed_y__AT1)))
(let ((.def_217 (and .def_167 .def_216)))
(let ((.def_212 (= b.delta__AT0 0.0 )))
(let ((.def_213 (and .def_122 .def_212)))
(let ((.def_214 (not .def_213)))
(let ((.def_218 (or .def_214 .def_217)))
(let ((.def_219 (or b.EVENT.1__AT0 .def_218)))
(let ((.def_192 (= b.time__AT0 b.time__AT1)))
(let ((.def_204 (and .def_181 .def_192)))
(let ((.def_205 (and .def_178 .def_204)))
(let ((.def_206 (and .def_104 .def_205)))
(let ((.def_207 (and .def_167 .def_206)))
(let ((.def_208 (and .def_174 .def_207)))
(let ((.def_209 (or .def_44 .def_208)))
(let ((.def_195 (* (- 1.0) b.time__AT1)))
(let ((.def_198 (+ b.delta__AT0 .def_195)))
(let ((.def_199 (+ b.time__AT0 .def_198)))
(let ((.def_200 (= .def_199 0.0 )))
(let ((.def_201 (or .def_123 .def_200)))
(let ((.def_202 (or b.EVENT.1__AT0 .def_201)))
(let ((.def_193 (or .def_122 .def_192)))
(let ((.def_194 (or b.EVENT.1__AT0 .def_193)))
(let ((.def_203 (and .def_194 .def_202)))
(let ((.def_210 (and .def_203 .def_209)))
(let ((.def_188 (= .def_123 b.event_is_timed__AT1)))
(let ((.def_186 (= b.event_is_timed__AT0 .def_122)))
(let ((.def_189 (and .def_186 .def_188)))
(let ((.def_175 (and .def_167 .def_174)))
(let ((.def_79 (<= 0.0 b.speed_y__AT0)))
(let ((.def_126 (not .def_79)))
(let ((.def_125 (= b.y__AT0 0.0 )))
(let ((.def_127 (and .def_125 .def_126)))
(let ((.def_176 (or .def_127 .def_175)))
(let ((.def_142 (or .def_6 b.counter.0__AT0)))
(let ((.def_27 (not b.counter.0__AT0)))
(let ((.def_141 (or b.counter.0__AT1 .def_27)))
(let ((.def_143 (and .def_141 .def_142)))
(let ((.def_144 (and .def_4 .def_143)))
(let ((.def_145 (or b.counter.1__AT0 .def_144)))
(let ((.def_25 (not b.counter.1__AT0)))
(let ((.def_140 (or b.counter.1__AT1 .def_25)))
(let ((.def_146 (and .def_140 .def_145)))
(let ((.def_159 (and .def_9 .def_146)))
(let ((.def_160 (or b.counter.2__AT0 .def_159)))
(let ((.def_154 (and .def_4 .def_27)))
(let ((.def_155 (or b.counter.1__AT0 .def_154)))
(let ((.def_156 (and .def_140 .def_155)))
(let ((.def_157 (and b.counter.2__AT1 .def_156)))
(let ((.def_30 (not b.counter.2__AT0)))
(let ((.def_158 (or .def_30 .def_157)))
(let ((.def_161 (and .def_158 .def_160)))
(let ((.def_162 (and b.counter.3__AT1 .def_161)))
(let ((.def_163 (or b.counter.3__AT0 .def_162)))
(let ((.def_147 (and b.counter.2__AT1 .def_146)))
(let ((.def_148 (or b.counter.2__AT0 .def_147)))
(let ((.def_136 (or b.counter.1__AT1 b.counter.1__AT0)))
(let ((.def_134 (and .def_4 b.counter.0__AT1)))
(let ((.def_135 (or .def_25 .def_134)))
(let ((.def_137 (and .def_135 .def_136)))
(let ((.def_138 (and .def_9 .def_137)))
(let ((.def_139 (or .def_30 .def_138)))
(let ((.def_149 (and .def_139 .def_148)))
(let ((.def_152 (and .def_149 .def_151)))
(let ((.def_33 (not b.counter.3__AT0)))
(let ((.def_153 (or .def_33 .def_152)))
(let ((.def_164 (and .def_153 .def_163)))
(let ((.def_130 (* (- 1.0) speed_loss__AT0)))
(let ((.def_131 (+ 1.0 .def_130)))
(let ((.def_129 (* (- 1.0) b.speed_y__AT0)))
(let ((.def_132 (* .def_129 .def_131)))
(let ((.def_133 (= b.speed_y__AT1 .def_132)))
(let ((.def_165 (and .def_133 .def_164)))
(let ((.def_128 (not .def_127)))
(let ((.def_166 (or .def_128 .def_165)))
(let ((.def_177 (and .def_166 .def_176)))
(let ((.def_179 (and .def_177 .def_178)))
(let ((.def_180 (and .def_104 .def_179)))
(let ((.def_182 (and .def_180 .def_181)))
(let ((.def_183 (or .def_122 .def_182)))
(let ((.def_184 (or b.EVENT.1__AT0 .def_183)))
(let ((.def_114 (* (- 1.0) b.y__AT1)))
(let ((.def_74 (* b.speed_y__AT0 b.delta__AT0)))
(let ((.def_117 (+ .def_74 .def_114)))
(let ((.def_69 (* b.delta__AT0 b.delta__AT0)))
(let ((.def_73 (* .def_69 .def_72)))
(let ((.def_118 (+ .def_73 .def_117)))
(let ((.def_119 (+ b.y__AT0 .def_118)))
(let ((.def_120 (= .def_119 0.0 )))
(let ((.def_108 (* (- 1.0) b.speed_y__AT1)))
(let ((.def_106 (* b.delta__AT0 .def_71)))
(let ((.def_109 (+ .def_106 .def_108)))
(let ((.def_110 (+ b.speed_y__AT0 .def_109)))
(let ((.def_111 (= .def_110 0.0 )))
(let ((.def_96 (* (- 1.0) b.x__AT1)))
(let ((.def_100 (+ .def_96 b.x__AT0)))
(let ((.def_94 (* b.delta__AT0 b.speed_x__AT0)))
(let ((.def_101 (+ .def_94 .def_100)))
(let ((.def_102 (= .def_101 0.0 )))
(let ((.def_105 (and .def_102 .def_104)))
(let ((.def_112 (and .def_105 .def_111)))
(let ((.def_121 (and .def_112 .def_120)))
(let ((.def_124 (or .def_121 .def_123)))
(let ((.def_185 (and .def_124 .def_184)))
(let ((.def_190 (and .def_185 .def_189)))
(let ((.def_211 (and .def_190 .def_210)))
(let ((.def_220 (and .def_211 .def_219)))
(let ((.def_223 (and .def_220 .def_222)))
(let ((.def_227 (and .def_223 .def_226)))
(let ((.def_228 (and .def_44 .def_227)))
(let ((.def_245 (and .def_228 .def_244)))
(let ((.def_28 (and .def_25 .def_27)))
(let ((.def_31 (and .def_28 .def_30)))
(let ((.def_246 (and .def_31 .def_245)))
(let ((.def_81 (* b.delta__AT0 .def_80)))
(let ((.def_82 (+ b.speed_y__AT0 .def_81)))
(let ((.def_86 (<= .def_82 0.0 )))
(let ((.def_85 (<= b.speed_y__AT0 0.0 )))
(let ((.def_87 (and .def_85 .def_86)))
(let ((.def_83 (<= 0.0 .def_82)))
(let ((.def_84 (and .def_79 .def_83)))
(let ((.def_88 (or .def_84 .def_87)))
(let ((.def_75 (+ .def_73 .def_74)))
(let ((.def_76 (+ b.y__AT0 .def_75)))
(let ((.def_77 (<= 0.0 .def_76)))
(let ((.def_63 (<= 0.0 b.y__AT0)))
(let ((.def_78 (and .def_63 .def_77)))
(let ((.def_89 (and .def_78 .def_88)))
(let ((.def_90 (and .def_53 .def_89)))
(let ((.def_91 (and .def_61 .def_90)))
(let ((.def_64 (and .def_62 .def_63)))
(let ((.def_47 (or .def_44 .def_46)))
(let ((.def_37 (or .def_25 .def_27)))
(let ((.def_41 (or b.counter.3__AT0 .def_37)))
(let ((.def_38 (or b.counter.2__AT0 .def_37)))
(let ((.def_36 (or .def_27 .def_30)))
(let ((.def_39 (and .def_36 .def_38)))
(let ((.def_40 (or .def_33 .def_39)))
(let ((.def_42 (and .def_40 .def_41)))
(let ((.def_48 (and .def_42 .def_47)))
(let ((.def_65 (and .def_48 .def_64)))
(let ((.def_34 (and .def_31 .def_33)))
(let ((.def_22 (= b.speed_y__AT0 0.0 )))
(let ((.def_19 (= b.y__AT0 10.0 )))
(let ((.def_14 (= b.time__AT0 0.0 )))
(let ((.def_16 (and .def_14 b.event_is_timed__AT0)))
(let ((.def_20 (and .def_16 .def_19)))
(let ((.def_23 (and .def_20 .def_22)))
(let ((.def_35 (and .def_23 .def_34)))
(let ((.def_66 (and .def_35 .def_65)))
(let ((.def_7 (and .def_4 .def_6)))
(let ((.def_10 (and .def_7 .def_9)))
(let ((.def_11 (not .def_10)))
(let ((.def_67 (and .def_11 .def_66)))
(let ((.def_92 (and .def_67 .def_91)))
(let ((.def_247 (and .def_92 .def_246)))
(let ((.def_268 (and .def_247 .def_267)))
.def_268)))))))))))))))))))))))))))))))))))))))))))))))))))))))))))))))))))))))))))))))))))))))))))))))))))))))))))))))))))))))))))))))))))))))))))))))))))))))))))))))))))))))))))))))))))))))))))))))))))))))))))))))))))))))))))))))))
(check-sat)
(exit)
